sing20151214.00
TTAA 64001 48698
99008 24814 35501 00090 26214 31003 92776 22839 03009
85510 19657 01506 70154 09845 04007 50588 04714 36005
40760 14335 05508 30972 29732 12516 25099 40125 11020
20247 52925 12032 15426 68159 13042 10660 77559 09520
88110 80556 09555
77999=
TTCC 64007 48698
70865 75962 26024
88999
77999=
TTDD 6400/ 48698
11969 74961 22825 79957 33726 75162 44690 76362 55638
72366
21212 11983 08011 22960 36004 33938 30010 44837 33519
55820 35019 66777 02514 77771 02010 88762 33508 99755
30510 11716 27025 22689 25522 33651 29520 44638 29520=
